RT is False
Default write of storage_offers_DA.csv just to have a file (but constraint should be inactive)
Reading model...
...model read.
creating competitive generators file...
...competitive generators recorded.
Loading data...
.. day-ahead data with real-time VRE data read.
Compiling instance...
...instance created.
Creating Offer Mitigation (model will solve as dispatch if TRUE)...
Solving...

Welcome to IBM(R) ILOG(R) CPLEX(R) Interactive Optimizer 12.9.0.0
  with Simplex, Mixed Integer & Barrier Optimizers
5725-A06 5725-A29 5724-Y48 5724-Y49 5724-Y54 5724-Y55 5655-Y21
Copyright IBM Corp. 1988, 2019.  All Rights Reserved.

Type 'help' for a list of available commands.
Type 'help' followed by a command name for more
information on commands.

CPLEX> Logfile 'cplex.log' closed.
Logfile 'C:\Users\Luke\Desktop\test919\logs\tmpnwxfa21h.cplex.log' open.
CPLEX> New value for parallel optimization mode: -1
CPLEX> New value for mixed integer optimality gap tolerance: 0.01
CPLEX> New value for integrality tolerance: 1e-09
CPLEX> New value for feasibility tolerance: 0.01
CPLEX> New value for deterministic time limit in ticks: 75000
CPLEX> Problem 'C:\Users\Luke\Desktop\test919\logs\tmpqpm9pf8d.pyomo.lp' read.
Read time = 0.05 sec. (3.04 ticks)
CPLEX> Problem name         : C:\Users\Luke\Desktop\test919\logs\tmpqpm9pf8d.pyomo.lp
Objective sense      : Minimize
Variables            :   26081  [Nneg: 1,  Box: 21616,  Free: 4464]
Objective nonzeros   :    2496
Linear constraints   :   27515  [Less: 14006,  Greater: 4416,  Equal: 9093]
  Nonzeros           :   89219
  RHS nonzeros       :   12271

Variables            : Min LB: -5000.000        Max UB: 1000000.       
Objective nonzeros   : Min   : 15.73158         Max   : 124.0997       
Linear constraints   :
  Nonzeros           : Min   : 0.8500000        Max   : 3000.000       
  RHS nonzeros       : Min   : 0.1083333        Max   : 5000.000       
CPLEX> CPXPARAM_Parallel                                -1
CPXPARAM_Simplex_Tolerances_Feasibility          0.01
CPXPARAM_DetTimeLimit                            75000
CPXPARAM_MIP_Tolerances_MIPGap                   0.01
CPXPARAM_MIP_Tolerances_Integrality              1.0000000000000001e-09
Parallel mode: opportunistic, using up to 12 threads for concurrent optimization.
Tried aggregator 1 time.
LP Presolve eliminated 21377 rows and 15487 columns.
Aggregator did 746 substitutions.
Reduced LP has 5392 rows, 9848 columns, and 31788 nonzeros.
Presolve time = 0.05 sec. (30.19 ticks)
Symmetry aggregator did 5563 additional substitutions.
Initializing dual steep norms . . .

Iteration log . . .
Iteration:     1   Dual objective     =             0.000000
Perturbation started.
Iteration:   101   Dual objective     =             0.000000
Iteration:   287   Dual objective     =            49.728742
Iteration:   431   Dual objective     =            70.192188
Iteration:   647   Dual objective     =            71.423314
Iteration:   902   Dual objective     =            71.447126
Iteration:  1088   Dual objective     =            71.469021
Iteration:  1220   Dual objective     =         48346.110065
Iteration:  1512   Dual objective     =         73917.017233
Removing perturbation.

Dual crossover.
  Dual:  Fixing 6 variables.
Using devex.

Primal simplex solved model.


Primal simplex - Optimal:  Objective =  7.4537403004e+04
Solution time =    0.13 sec.  Iterations = 1756 (1022)
Deterministic time = 80.83 ticks  (646.62 ticks/sec)

CPLEX> Solution written to file 'C:\Users\Luke\Desktop\test919\logs\tmp3emaxn93.cplex.sol'.
CPLEX> Exporting results... 
...storage offer mitigation file created
Converting model to MPEC...
...converted
NOTE: initial MIP solve with only storage competitive to get feasible solution
Solving...

Welcome to IBM(R) ILOG(R) CPLEX(R) Interactive Optimizer 12.9.0.0
  with Simplex, Mixed Integer & Barrier Optimizers
5725-A06 5725-A29 5724-Y48 5724-Y49 5724-Y54 5724-Y55 5655-Y21
Copyright IBM Corp. 1988, 2019.  All Rights Reserved.

Type 'help' for a list of available commands.
Type 'help' followed by a command name for more
information on commands.

CPLEX> Logfile 'cplex.log' closed.
Logfile 'C:\Users\Luke\Desktop\test919\logs\tmp3p4grsxy.cplex.log' open.
CPLEX> New value for parallel optimization mode: -1
CPLEX> New value for mixed integer optimality gap tolerance: 0.01
CPLEX> New value for integrality tolerance: 1e-09
CPLEX> New value for feasibility tolerance: 0.01
CPLEX> New value for deterministic time limit in ticks: 75000
CPLEX> Problem 'C:\Users\Luke\Desktop\test919\logs\tmpqdhf8vo1.pyomo.lp' read.
Read time = 0.22 sec. (14.78 ticks)
CPLEX> Problem name         : C:\Users\Luke\Desktop\test919\logs\tmpqdhf8vo1.pyomo.lp
Objective sense      : Maximize
Variables            :   53805  [Nneg: 1,  Box: 22000,  Free: 4464,
                                 Binary: 27340]
Objective nonzeros   :    9029
Linear constraints   :  123205  [Less: 41346,  Greater: 59096,  Equal: 22763]
  Nonzeros           :  291753
  RHS nonzeros       :   67441

Variables            : Min LB: -5000.000        Max UB: 1000000.       
Objective nonzeros   : Min   : 0.1083333        Max   : 2500.000       
Linear constraints   :
  Nonzeros           : Min   : 0.1083333        Max   : 1000000.       
  RHS nonzeros       : Min   : 0.1083333        Max   : 1000000.       
CPLEX> CPXPARAM_Parallel                                -1
CPXPARAM_Simplex_Tolerances_Feasibility          0.01
CPXPARAM_DetTimeLimit                            75000
CPXPARAM_MIP_Tolerances_MIPGap                   0.01
CPXPARAM_MIP_Tolerances_Integrality              1.0000000000000001e-09
Tried aggregator 3 times.
MIP Presolve eliminated 88621 rows and 18945 columns.
MIP Presolve added 3371 rows and 0 columns.
MIP Presolve modified 24862 coefficients.
Aggregator did 12981 substitutions.
Reduced MIP has 24974 rows, 21323 columns, and 71218 nonzeros.
Reduced MIP has 8427 binaries, 0 generals, 0 SOSs, and 0 indicators.
Presolve time = 0.23 sec. (173.53 ticks)
Probing fixed 395 vars, tightened 2824 bounds.
Probing time = 1.55 sec. (886.63 ticks)
Tried aggregator 2 times.
MIP Presolve eliminated 897 rows and 797 columns.
MIP Presolve modified 2213 coefficients.
Aggregator did 40 substitutions.
Reduced MIP has 24037 rows, 20486 columns, and 68492 nonzeros.
Reduced MIP has 8030 binaries, 0 generals, 0 SOSs, and 0 indicators.
Presolve time = 0.09 sec. (68.71 ticks)
Probing time = 0.03 sec. (15.83 ticks)
Clique table members: 6491.
MIP emphasis: balance optimality and feasibility.
MIP search method: dynamic search.
Parallel mode: opportunistic, using up to 12 threads.
Root relaxation solution time = 0.58 sec. (605.38 ticks)

        Nodes                                         Cuts/
   Node  Left     Objective  IInf  Best Integer    Best Bound    ItCnt     Gap

      0     0     2933.5521   747                   2933.5521     6838         
      0     0     2933.5521    19                    Cuts: 11     6841         
      0     0     2922.7647    18                    Cuts: 10     6844         
      0     0     2922.1063    16                     Cuts: 6     6845         
      0     0     2922.1063    16                 Impl Bds: 2     6845         
      0     4     2922.1063     5                    Fract: 2     7639         
Elapsed time = 10.28 sec. (4974.86 ticks, tree = 0.02 MB, solutions = 0)
*   119+   31                        -1179.2480     2922.1063           347.79%
    287    72     -446.7467     9    -1179.2480     2909.7500    10765  346.75%
*   339   106      integral     0     2909.7500     2909.7500    11104    0.00%

Clique cuts applied:  1
Implied bound cuts applied:  16
Flow cuts applied:  10
Gomory fractional cuts applied:  5

Root node processing (before b&c):
  Real time             =    9.58 sec. (4928.81 ticks)
Parallel b&c, 12 threads:
  Real time             =    2.67 sec. (630.13 ticks)
  Sync time (average)   =    0.48 sec.
  Wait time (average)   =    0.00 sec.
                          ------------
Total (root+branch&cut) =   12.25 sec. (5558.94 ticks)

Solution pool: 3 solutions saved.

MIP - Integer optimal solution:  Objective =  2.9097500246e+03
Solution time =   12.25 sec.  Iterations = 11368  Nodes = 414
Deterministic time = 5559.09 ticks  (453.80 ticks/sec)

CPLEX> Incumbent solution written to file 'C:\Users\Luke\Desktop\test919\logs\tmp2ih3j3w4.cplex.sol'.
CPLEX> NOTE: no warmstart specified for MIP iteration, default behavior is true
NOTE: resolving with all competitive generators using storage-only solution to warmstart
Solving...

Welcome to IBM(R) ILOG(R) CPLEX(R) Interactive Optimizer 12.9.0.0
  with Simplex, Mixed Integer & Barrier Optimizers
5725-A06 5725-A29 5724-Y48 5724-Y49 5724-Y54 5724-Y55 5655-Y21
Copyright IBM Corp. 1988, 2019.  All Rights Reserved.

Type 'help' for a list of available commands.
Type 'help' followed by a command name for more
information on commands.

CPLEX> Logfile 'cplex.log' closed.
Logfile 'C:\Users\Luke\Desktop\test919\logs\tmp3r68kd01.cplex.log' open.
CPLEX> New value for parallel optimization mode: -1
CPLEX> New value for mixed integer optimality gap tolerance: 0.01
CPLEX> New value for integrality tolerance: 1e-09
CPLEX> New value for feasibility tolerance: 0.01
CPLEX> New value for deterministic time limit in ticks: 75000
CPLEX> Problem 'C:\Users\Luke\Desktop\test919\logs\tmp0kyc766g.pyomo.lp' read.
Read time = 0.19 sec. (14.81 ticks)
CPLEX> MIP start file 'C:\Users\Luke\Desktop\test919\logs\tmpnt6082u6.cplex.mst' read.
CPLEX> Problem name         : C:\Users\Luke\Desktop\test919\logs\tmp0kyc766g.pyomo.lp
Objective sense      : Maximize
Variables            :   54525  [Nneg: 1,  Box: 22720,  Free: 4464,
                                 Binary: 27340]
Objective nonzeros   :    9725
Linear constraints   :  123205  [Less: 41346,  Greater: 59096,  Equal: 22763]
  Nonzeros           :  291753
  RHS nonzeros       :   67441

Variables            : Min LB: -5000.000        Max UB: 1000000.       
Objective nonzeros   : Min   : 0.1083333        Max   : 2500.000       
Linear constraints   :
  Nonzeros           : Min   : 0.1083333        Max   : 1000000.       
  RHS nonzeros       : Min   : 0.1083333        Max   : 1000000.       
CPLEX> CPXPARAM_Parallel                                -1
CPXPARAM_Simplex_Tolerances_Feasibility          0.01
CPXPARAM_DetTimeLimit                            75000
CPXPARAM_MIP_Tolerances_MIPGap                   0.01
CPXPARAM_MIP_Tolerances_Integrality              1.0000000000000001e-09
Warning:  No solution found from 1 MIP starts.
Retaining values of one MIP start for possible repair.
Tried aggregator 3 times.
MIP Presolve eliminated 88621 rows and 19665 columns.
MIP Presolve added 3371 rows and 0 columns.
MIP Presolve modified 24862 coefficients.
Aggregator did 12981 substitutions.
Reduced MIP has 24974 rows, 21323 columns, and 71218 nonzeros.
Reduced MIP has 8427 binaries, 0 generals, 0 SOSs, and 0 indicators.
Presolve time = 0.25 sec. (173.89 ticks)
Probing fixed 395 vars, tightened 2824 bounds.
Probing time = 1.56 sec. (886.63 ticks)
Tried aggregator 2 times.
MIP Presolve eliminated 897 rows and 797 columns.
MIP Presolve modified 2213 coefficients.
Aggregator did 40 substitutions.
Reduced MIP has 24037 rows, 20486 columns, and 68492 nonzeros.
Reduced MIP has 8030 binaries, 0 generals, 0 SOSs, and 0 indicators.
Presolve time = 0.08 sec. (68.71 ticks)
Probing time = 0.05 sec. (15.83 ticks)
Clique table members: 6491.
MIP emphasis: balance optimality and feasibility.
MIP search method: dynamic search.
Parallel mode: opportunistic, using up to 12 threads.
Root relaxation solution time = 0.75 sec. (373.43 ticks)

        Nodes                                         Cuts/
   Node  Left     Objective  IInf  Best Integer    Best Bound    ItCnt     Gap

      0     0   146361.9034  1265                 146361.9034      118         
      0     0   142871.8463   121                   Cuts: 236      316         
      0     0   142264.2359   123                   Cuts: 125      394         
      0     0   142204.2315   121                    Cuts: 29      408         
      0     0   142001.2129   119                    Cuts: 31      422         
      0     0   141985.2253   121                    Cuts: 39      427         
      0     0   141973.1830   120                    Cuts: 23      429         
      0     0   141895.8393   124                    Cuts: 24      446         
      0     0   141895.8393   124                    Cuts: 30      447         
      0     0   141895.8393   124                    Cuts: 29      447         
Repair heuristic found nothing.
      0     2   141895.8393   124                     Cuts: 6      447         
Elapsed time = 11.52 sec. (5666.63 ticks, tree = 0.02 MB, solutions = 0)
    140    32   136034.6068   105                 141054.2916      835         
    354   231   104568.3411    65                 141054.2916     3953         
    517   423    92374.4305    47                 141054.2916     6410         
    729   613    84584.7387    54                 141054.2916    10692         
    982   657    infeasible                       141054.2916    12679         
   1288   848    infeasible                       141054.2916    17304         
   1538  1019    66189.7873    25                 141054.2916    20086         
*  1575  1001      integral     0    55919.2837   141054.2916    19067  152.25%
   1744  1040    67064.0688    12    55919.2837   141054.2916    22434  152.25%
*  1764  1077      integral     0    60217.0401   141054.2916    20832  134.24%
   1923  1014   126713.2272   100    60217.0401   141054.2916    23586  134.24%
   2843  1586    71304.8423    15    60217.0401   137039.2313    32227  127.58%
Elapsed time = 24.05 sec. (8779.94 ticks, tree = 15.89 MB, solutions = 2)
   3770  2583    62859.0222     9    60217.0401   137039.2313    42162  127.58%
   4094  2788   130850.0351   166    60217.0401   131591.9220    52753  118.53%
   4736   498    65724.3106   151    60217.0401   126961.6952    63242  110.84%
   5166   840    72995.9637   123    60217.0401   120265.0084    69388   99.72%
   6212  1041    73455.3190    88    60217.0401   120265.0084    71200   99.72%
   7299  2373    89998.7230   141    60217.0401   120265.0084    89981   99.72%
   8121  2590    62846.0339    88    60217.0401   108034.1754    93079   79.41%
*  8733  2854      integral     0    60363.1574    99719.3336    95762   65.20%
   9661  3494    70613.4403    43    60363.1574    97067.9217   103343   60.81%
* 10318  4363      integral     0    65079.4739    96898.6057   112714   48.89%
Elapsed time = 68.28 sec. (22880.19 ticks, tree = 34.94 MB, solutions = 4)
  11440  3456    77465.5094   108    65828.3609    96017.4774   115827   45.86%
  12620  4282        cutoff          65828.3609    93723.9844   127903   42.38%
  13780  4044    82597.6221   118    65828.3609    88301.7834   125814   34.14%
  14783  2751    76032.3720   110    74002.5391    87865.3810   140771   18.73%
  15821  3230    79112.6298   124    74002.5391    87590.0441   146962   18.36%
  17046  3955    75593.6381    42    74002.5391    87457.8666   154451   18.18%
* 17341  3849      integral     0    77633.7885    87457.8666   152669   12.65%
  18534  4703    74265.6781   105    77633.7885    87419.3587   160359   12.60%
  19587  4736    86438.3763   102    77633.7885    87419.3587   161261   12.60%
  20607  3995        cutoff          77633.7885    87106.3049   178195   12.20%
Elapsed time = 106.72 sec. (31697.42 ticks, tree = 29.10 MB, solutions = 8)
* 20659  3819      integral     0    77659.2530    87106.3049   176292   12.16%
  21673  3476    83171.0117   107    77659.2530    87024.2450   173199   12.06%
  22791  4897    84577.8241   108    77659.2530    87024.2450   184412   12.06%
  23928  5215    86513.2129   103    77659.2530    86865.4997   187085   11.85%
  25100  6449    80149.3482    78    77659.2530    86825.4143   196117   11.80%
  26228  7627    80226.4343    99    77659.2530    86787.5794   205076   11.75%
  27323  8665    82424.2922   107    77659.2530    86740.8316   212607   11.69%
  28319  9397    80258.0753    88    77659.2530    86740.8316   218418   11.69%
  29262  9143    85713.2880    97    77659.2530    86710.2057   216274   11.65%
  30202 11753        cutoff          77659.2530    86684.5564   237757   11.62%
Elapsed time = 142.61 sec. (40332.02 ticks, tree = 95.36 MB, solutions = 8)
  31114 10424    81204.9728    84    77659.2530    86684.5564   226343   11.62%
  32246 12430    77717.2934    80    77659.2530    86678.1598   243072   11.61%
  33444 11581        cutoff          77659.2530    86672.0116   236518   11.61%
  34656 12099    84469.4369    94    77659.2530    86648.5869   240582   11.58%
  35819 15828    86087.0913   101    77659.2530    86642.2596   269757   11.57%
  36890 16505    77960.8420    75    77659.2530    86629.1870   275249   11.55%
  38004 16270    79771.7083    98    77659.2530    86629.1870   273591   11.55%
  39135 16228    82094.8035    96    77659.2530    86623.9624   273278   11.54%
  40237 18298    77685.9700    50    77659.2530    86597.0669   287584   11.51%
  41534 20102    84724.0702   106    77659.2530    86596.5690   300610   11.51%
Elapsed time = 185.22 sec. (49881.13 ticks, tree = 170.43 MB, solutions = 8)
  42848 20289    81607.7986    87    77659.2530    86585.2692   302436   11.49%
  44186 19438    86414.2251    95    77659.2530    86582.6433   295274   11.49%
  45261 21563    78022.2203    91    77659.2530    86581.1016   312081   11.49%
  46025 23011    79248.6991   104    77659.2530    86558.3608   321538   11.46%
  46746 21971    83602.1889   100    77659.2530    86558.3608   314392   11.46%
  47635 20979    80870.1671   104    77659.2530    86558.3608   307158   11.46%
* 47706 24144      integral     0    77788.2764    86558.3608   328190   11.27%
  48382 24998    82062.7359    96    77788.2764    86544.1711   341120   11.26%
  48932 25604    79605.9795    82    77788.2764    86537.6318   346351   11.25%
  49637 25571    77869.8418    29    77788.2764    86537.6318   338366   11.25%
Elapsed time = 215.41 sec. (58548.39 ticks, tree = 220.68 MB, solutions = 9)
  50471 24729    83496.3320   100    77788.2764    86529.4490   339067   11.24%
  51448 25805    82590.5680   101    77788.2764    86529.4490   347782   11.24%
  52497 27194    78047.3153    76    77788.2764    86529.4490   358224   11.24%
  53597 25643    82979.0870    99    77788.2764    86529.4490   346635   11.24%
  54706 25829    85092.5366    95    77788.2764    86515.1863   348007   11.22%
  55909 28614    79435.9592    88    77788.2764    86515.1863   370240   11.22%
  57169 30600    78821.6363    93    77788.2764    86512.3869   386936   11.22%
  58410 30005    81994.9828    92    77788.2764    86500.8407   382510   11.20%
  59665 31633    80207.6098   102    77788.2764    86492.2699   394632   11.19%
  60926 30816    84984.7531   100    77788.2764    86492.2699   388879   11.19%
Elapsed time = 258.33 sec. (68094.94 ticks, tree = 261.13 MB, solutions = 9)
  62132 31438        cutoff          77788.2764    86485.2324   393789   11.18%
  63252 34819    84053.9641   101    77788.2764    86481.3451   419791   11.18%
  64173 31856    80288.2798    95    77788.2764    86481.3451   396569   11.18%
  65080 31957    80214.8069    86    77788.2764    86481.3451   397869   11.18%
  65911 32295    83418.5845   106    77788.2764    86481.3451   399977   11.18%
  66515 35106    82490.6888   105    77788.2764    86481.3451   422066   11.18%
  67101 33703    77790.3336   100    77788.2764    86481.3451   411999   11.18%

GUB cover cuts applied:  2
Clique cuts applied:  5
Cover cuts applied:  9
Implied bound cuts applied:  4
Flow cuts applied:  325
Mixed integer rounding cuts applied:  35
Gomory fractional cuts applied:  73

Root node processing (before b&c):
  Real time             =   10.89 sec. (5628.90 ticks)
Parallel b&c, 12 threads:
  Real time             =  257.36 sec. (69399.48 ticks)
  Sync time (average)   =    0.61 sec.
  Wait time (average)   =    0.05 sec.
                          ------------
Total (root+branch&cut) =  268.25 sec. (75028.38 ticks)

Solution pool: 9 solutions saved.

MIP - Deterministic time limit exceeded, integer feasible:  Objective =  7.7788276367e+04
Current MIP best bound =  8.6433881706e+04 (gap = 8645.61, 11.11%)
Solution time =  268.25 sec.  Iterations = 455667  Nodes = 67201 (39094)
Deterministic time = 75028.53 ticks  (279.70 ticks/sec)

CPLEX> Incumbent solution written to file 'C:\Users\Luke\Desktop\test919\logs\tmpypi4wfwx.cplex.sol'.
CPLEX> Exporting results... 
